cliques=[{13,0,18,30,42,48,54,35},{0,1,2,3,4},{0,1,2,3,4},{0,1,2,3,4},{0,1,2,3,4},{6,5,7,8,10,11,12,9},{6,5,7,8,10,11,12,9},{6,5,7,8,10,11,12,9},{6,5,7,8,10,11,12,9},{6,5,7,8,10,11,12,9},{6,5,7,8,10,11,12,9},{6,5,7,8,10,11,12,9},{6,5,7,8,10,11,12,9},{13,0,18,30,42,48,54,35},{13,14,16,17,15},{13,14,16,17,15},{13,14,16,17,15},{13,14,16,17,15},{13,0,18,30,42,48,54,35},{18,19,22,21,20},{18,19,22,21,20},{18,19,22,21,20},{18,19,22,21,20},{5,23,34,47,53},{6,24,49,55,36},{7,25,56,37},{8,39,26,51,57},{24,23,27,25,26,28,29},{24,23,27,25,26,28,29},{24,23,27,25,26,28,29},{13,0,18,30,42,48,54,35},{30,32,31,33},{30,32,31,33},{30,32,31,33},{5,23,34,47,53},{13,0,18,30,42,48,54,35},{6,24,49,55,36},{7,25,56,37},{14,1,43,19,31,50,38},{8,39,26,51,57},{10,27,59,40,52},{17,12,46,22,4,41,29},{13,0,18,30,42,48,54,35},{14,1,43,19,31,50,38},{42,43,46,44,45},{16,11,3,21,33,28,45},{17,12,46,22,4,41,29},{5,23,34,47,53},{13,0,18,30,42,48,54,35},{6,24,49,55,36},{14,1,43,19,31,50,38},{8,39,26,51,57},{49,48,47,51,50,52},{5,23,34,47,53},{13,0,18,30,42,48,54,35},{6,24,49,55,36},{7,25,56,37},{8,39,26,51,57},{55,54,59,56,53,58,57},{55,54,59,56,53,58,57}];
nr_cliques=60;
